NAME : random135.880.tour
COMMENT : Length = 880
COMMENT : Found by LKH [Keld Helsgaun] Sat Nov 23 21:52:51 2024
TYPE : TOUR
DIMENSION : 135
TOUR_SECTION
1
36
89
94
29
88
37
134
38
66
67
74
118
111
23
127
60
43
100
6
86
7
126
53
98
11
121
81
61
55
87
83
73
107
59
93
76
18
62
119
129
8
103
70
24
10
44
14
123
52
5
115
120
96
135
72
2
128
71
12
48
78
133
112
99
69
64
54
85
95
25
49
90
104
75
46
122
56
45
131
22
116
82
80
13
47
26
97
42
31
84
21
40
113
124
27
68
102
41
28
132
35
17
4
34
58
77
15
63
117
50
108
32
92
20
101
79
57
39
9
105
109
125
19
110
30
65
106
16
114
130
3
33
91
51
-1
EOF
